15759.23,44.19,50.2
15932.2,43.71,49.66
17706.51,39.33,44.68
17749.71,39.24,44.57
15531.74,44.84,50.94
17979.77,38.73,44.0
16598.32,41.96,47.66
16500.89,42.2,47.94
17130.93,40.65,46.18
16384.87,42.5,48.28
16208.88,42.96,48.81
16919.83,41.16,46.76
18238.44,38.18,43.38
15880.4,43.85,49.82
17605.18,39.56,44.94
16144.62,43.14,49.0
17876.09,38.96,44.26
17250.05,40.37,45.86
15257.27,45.64,51.85
16375.72,42.53,48.31
